NAME : rnd25_50.tsp
TYPE : TSP
DIMENSION : 50
EDGE_WEIGHT_TYPE : EUC_2D
NODE_COORD_SECTION
1 388 507
2 809 965
3 793 985
4 931 955
5 353 472
6 670 231
7 38 593
8 129 18
9 31 998
10 677 556
11 163 796
12 249 291
13 6 223
14 179 461
15 814 333
16 510 211
17 34 344
18 627 359
19 583 650
20 880 388
21 55 430
22 534 188
23 163 580
24 477 147
25 983 775
26 444 4
27 769 102
28 783 240
29 170 966
30 570 559
31 984 767
32 299 225
33 685 539
34 439 293
35 980 544
36 876 440
37 715 181
38 700 433
39 79 782
40 110 309
41 558 766
42 525 909
43 489 809
44 123 697
45 246 949
46 193 139
47 592 667
48 436 359
49 353 231
50 521 348
